InboundTrucks  = 12;
OutboundTrucks = 8;
InboundDoors   = 4;
OutboundDoors  = 4;
ReleaseTime    = [25,58,14,22,0,80,80,37,29,51,26,51];
UnloadTime     = [44,15,35,10,10,14,16,11,25,21,40,42];
LoadTime       = [30,12,10,27,25,23,18,20];
TransferTime   = [| 22,0,22,0,41,35,0,49 | 0,0,21,37,15,0,0,17 | 47,21,0,42,22,15,0,0 | 0,21,0,28,0,0,17,0 | 0,0,0,43,34,0,46,0 | 0,0,30,0,42,31,0,33 | 45,20,21,12,15,23,0,47 | 27,15,46,0,44,25,27,0 | 0,0,0,33,16,0,0,0 | 0,0,22,36,17,0,11,0 | 0,0,18,0,10,19,12,11 | 0,0,37,0,0,0,0,0 |];
